Reading model...
...model read.
creating competitive generators file...
...competitive generators recorded.
Loading data...
.. real-time data read.
Compiling instance...
1200.0
100.0
1633.9153319999998
136.15961099999998
...instance created.
Creating Offer Mitigation (model will solve as dispatch if TRUE)...
...storage offer mitigation file created
Converting model to MPEC...
...converted
NOTE: initial MIP solve with only storage competitive to get feasible solution
Solving...

Welcome to IBM(R) ILOG(R) CPLEX(R) Interactive Optimizer 12.9.0.0
  with Simplex, Mixed Integer & Barrier Optimizers
5725-A06 5725-A29 5724-Y48 5724-Y49 5724-Y54 5724-Y55 5655-Y21
Copyright IBM Corp. 1988, 2019.  All Rights Reserved.

Type 'help' for a list of available commands.
Type 'help' followed by a command name for more
information on commands.

CPLEX> Logfile 'cplex.log' closed.
Logfile 'C:\Users\llavin\Desktop\test826\logs\tmpjbe28n94.cplex.log' open.
CPLEX> New value for parallel optimization mode: -1
CPLEX> New value for mixed integer optimality gap tolerance: 0.05
CPLEX> New value for emphasis for MIP optimization: 1
CPLEX> New value for integrality tolerance: 1e-12
CPLEX> New value for deterministic time limit in ticks: 250000
CPLEX> Problem 'C:\Users\llavin\Desktop\test826\logs\tmphbq5rrtp.pyomo.lp' read.
Read time = 0.55 sec. (28.53 ticks)
CPLEX> Problem name         : C:\Users\llavin\Desktop\test826\logs\tmphbq5rrtp.pyomo.lp
Objective sense      : Maximize
Variables            :  107783  [Nneg: 1,  Box: 44058,  Free: 8928,
                                 Binary: 54796]
Objective nonzeros   :   18339
Linear constraints   :  246901  [Less: 82864,  Greater: 118424,  Equal: 45613]
  Nonzeros           :  619133
  RHS nonzeros       :  135843

Variables            : Min LB: -5000.000        Max UB: 1000000.       
Objective nonzeros   : Min   : 0.008333333      Max   : 208.3333       
Linear constraints   :
  Nonzeros           : Min   : 0.008333333      Max   : 1000000.       
  RHS nonzeros       : Min   : 0.008333333      Max   : 1000000.       
CPLEX> CPXPARAM_Parallel                                -1
CPXPARAM_Emphasis_MIP                            1
CPXPARAM_DetTimeLimit                            250000
CPXPARAM_MIP_Tolerances_MIPGap                   0.050000000000000003
CPXPARAM_MIP_Tolerances_Integrality              9.9999999999999998e-13
Tried aggregator 3 times.
MIP Presolve eliminated 176826 rows and 37372 columns.
MIP Presolve added 7020 rows and 0 columns.
MIP Presolve modified 53022 coefficients.
Aggregator did 26008 substitutions.
Reduced MIP has 51087 rows, 43507 columns, and 151649 nonzeros.
Reduced MIP has 17225 binaries, 0 generals, 0 SOSs, and 0 indicators.
Presolve time = 0.63 sec. (376.60 ticks)
Probing fixed 830 vars, tightened 14815 bounds.
Probing time = 0.42 sec. (18.74 ticks)
Tried aggregator 2 times.
MIP Presolve eliminated 1851 rows and 1702 columns.
MIP Presolve modified 10084 coefficients.
Aggregator did 96 substitutions.
Reduced MIP has 49140 rows, 41709 columns, and 140369 nonzeros.
Reduced MIP has 16395 binaries, 0 generals, 0 SOSs, and 0 indicators.
Presolve time = 0.28 sec. (246.82 ticks)
Probing fixed 0 vars, tightened 3669 bounds.
Probing time = 0.52 sec. (18.42 ticks)
Clique table members: 80166.
MIP emphasis: integer feasibility.
MIP search method: dynamic search.
Parallel mode: opportunistic, using up to 32 threads.
Root relaxation solution time = 1.78 sec. (2640.63 ticks)

        Nodes                                         Cuts/
   Node  Left     Objective  IInf  Best Integer    Best Bound    ItCnt     Gap

      0     0     6105.5062  1080                   6105.5062     8806         
      0     0     6103.8178    77                   Cuts: 164     8916         
      0     0     2654.2797    27                 Flowcuts: 4     9083         
      0     0     2654.2797    27                 Flowcuts: 8     9087         
      0     3     2654.1482    25                   2654.2273     9088         
Elapsed time = 9.13 sec. (5858.44 ticks, tree = 0.02 MB, solutions = 0)
    449   226     2647.6940    16                   2653.9656     9723         
*   580   104      integral     0     2647.2226     2653.9656     9350    0.25%
    669   204     2652.4579    13     2647.2226     2653.9656     9654    0.25%
*   678   113      integral     0     2647.7964     2653.9656     9368    0.23%
    750   356    infeasible           2647.7964     2653.9656    10164    0.23%
    776   395     2651.9483    13     2647.7964     2653.9656    10280    0.23%

Flow cuts applied:  60

Root node processing (before b&c):
  Real time             =    6.97 sec. (5831.61 ticks)
Parallel b&c, 32 threads:
  Real time             =    5.91 sec. (1229.68 ticks)
  Sync time (average)   =    0.60 sec.
  Wait time (average)   =    0.00 sec.
                          ------------
Total (root+branch&cut) =   12.88 sec. (7061.29 ticks)

Solution pool: 3 solutions saved.

MIP - Integer optimal, tolerance (0.05/1e-06):  Objective =  2.6477964039e+03
Current MIP best bound =  2.6539655902e+03 (gap = 6.16919, 0.23%)
Solution time =   12.92 sec.  Iterations = 11213  Nodes = 779 (552)
Deterministic time = 7061.60 ticks  (546.48 ticks/sec)

CPLEX> Incumbent solution written to file 'C:\Users\llavin\Desktop\test826\logs\tmpjo3j4e0m.cplex.sol'.
CPLEX> NOTE: no warmstart specified for MIP iteration, default behavior is true
NOTE: resolving with all competitive generators using storage-only solution to warmstart
Solving...

Welcome to IBM(R) ILOG(R) CPLEX(R) Interactive Optimizer 12.9.0.0
  with Simplex, Mixed Integer & Barrier Optimizers
5725-A06 5725-A29 5724-Y48 5724-Y49 5724-Y54 5724-Y55 5655-Y21
Copyright IBM Corp. 1988, 2019.  All Rights Reserved.

Type 'help' for a list of available commands.
Type 'help' followed by a command name for more
information on commands.

CPLEX> Logfile 'cplex.log' closed.
Logfile 'C:\Users\llavin\Desktop\test826\logs\tmpn7okhv4z.cplex.log' open.
CPLEX> New value for parallel optimization mode: -1
CPLEX> New value for mixed integer optimality gap tolerance: 0.05
CPLEX> New value for emphasis for MIP optimization: 1
CPLEX> New value for integrality tolerance: 1e-12
CPLEX> New value for deterministic time limit in ticks: 250000
CPLEX> Problem 'C:\Users\llavin\Desktop\test826\logs\tmp2339b2y4.pyomo.lp' read.
Read time = 0.55 sec. (28.58 ticks)
CPLEX> MIP start file 'C:\Users\llavin\Desktop\test826\logs\tmpdm75gz_v.cplex.mst' read.
CPLEX> Problem name         : C:\Users\llavin\Desktop\test826\logs\tmp2339b2y4.pyomo.lp
Objective sense      : Maximize
Variables            :  109223  [Nneg: 1,  Box: 45498,  Free: 8928,
                                 Binary: 54796]
Objective nonzeros   :   19731
Linear constraints   :  246901  [Less: 82864,  Greater: 118424,  Equal: 45613]
  Nonzeros           :  619133
  RHS nonzeros       :  135843

Variables            : Min LB: -5000.000        Max UB: 1000000.       
Objective nonzeros   : Min   : 0.008333333      Max   : 208.3333       
Linear constraints   :
  Nonzeros           : Min   : 0.008333333      Max   : 1000000.       
  RHS nonzeros       : Min   : 0.008333333      Max   : 1000000.       
CPLEX> CPXPARAM_Parallel                                -1
CPXPARAM_Emphasis_MIP                            1
CPXPARAM_DetTimeLimit                            250000
CPXPARAM_MIP_Tolerances_MIPGap                   0.050000000000000003
CPXPARAM_MIP_Tolerances_Integrality              9.9999999999999998e-13
Warning:  No solution found from 1 MIP starts.
Retaining values of one MIP start for possible repair.
Tried aggregator 3 times.
MIP Presolve eliminated 176826 rows and 38812 columns.
MIP Presolve added 7020 rows and 0 columns.
MIP Presolve modified 53022 coefficients.
Aggregator did 26008 substitutions.
Reduced MIP has 51087 rows, 43507 columns, and 151649 nonzeros.
Reduced MIP has 17225 binaries, 0 generals, 0 SOSs, and 0 indicators.
Presolve time = 0.67 sec. (377.35 ticks)
Probing fixed 830 vars, tightened 14815 bounds.
Probing time = 0.45 sec. (18.74 ticks)
Tried aggregator 2 times.
MIP Presolve eliminated 1851 rows and 1702 columns.
MIP Presolve modified 10084 coefficients.
Aggregator did 96 substitutions.
Reduced MIP has 49140 rows, 41709 columns, and 140369 nonzeros.
Reduced MIP has 16395 binaries, 0 generals, 0 SOSs, and 0 indicators.
Presolve time = 0.28 sec. (246.83 ticks)
Probing fixed 0 vars, tightened 3669 bounds.
Probing time = 0.56 sec. (18.42 ticks)
Clique table members: 80166.
MIP emphasis: integer feasibility.
MIP search method: dynamic search.
Parallel mode: opportunistic, using up to 32 threads.
Root relaxation solution time = 2.05 sec. (2905.22 ticks)

        Nodes                                         Cuts/
   Node  Left     Objective  IInf  Best Integer    Best Bound    ItCnt     Gap

      0     0    24371.7585  1474                  24371.7585    11479         
      0     0    24344.0496   249                   Cuts: 305    11806         
      0     0    24335.7738   258                   Cuts: 141    11962         
      0     0    20805.7102   188                    Cuts: 62    12177         
Repair heuristic found nothing.
      0    22    19849.8251   189                    Cuts: 19    12531         
Elapsed time = 11.44 sec. (5830.66 ticks, tree = 0.02 MB, solutions = 0)
    312    97    19698.7813   141                  20795.3328    13361         
    701   556    20595.9551   141                  20795.3328    18291         
   1131   864    20702.0966   147                  20795.3328    21953         
   1437  1186    20689.9452   112                  20795.3328    24747         
   1653  1433    19495.8511   123                  20795.3328    27010         
   2007  1598    20516.9588    91                  20795.3328    29146         
   2365  1962    20469.7288    85                  20795.3328    35868         
   2685  2166    20588.6873   116                  20795.3328    40459         
   2972  2418    20468.0723    83                  20795.3328    46081         
   4002  3561    20719.7086   128                  20795.3328    86779         
Elapsed time = 30.55 sec. (8937.07 ticks, tree = 178.27 MB, solutions = 0)
   4957  4272    19435.6726    61                  20795.3328   114528         
   5513  5304    19151.0641   189                  20795.3328   177624         
   6593   810    20663.3827   195                  20795.3328   204494         
   8083  1128    20740.6793   175                  20795.3328   216035         
   9491  2265    infeasible                        20795.3328   247160         
  10758  3548    20725.1451   127                  20795.3328   291268         
  11855  5403    20737.1350   128                  20795.3328   363393         
  13132  5503    20604.9379   139                  20795.3328   367260         
  14303  6921    20607.5100   146                  20795.3328   437480         
  15346  6994    11952.3878   197                  20795.3328   447001         
Elapsed time = 109.99 sec. (24615.11 ticks, tree = 264.92 MB, solutions = 0)
  16476  9046     7619.9997   167                  20795.3328   553658         
  17739  9431    infeasible                        20795.3328   568307         
  18947  9589    10926.6348   190                  20795.3328   571520         
  20002 10314    20769.4165   169                  20795.3328   608605         
  20938 11448    20733.0534   149                  20795.3328   665565         
  21963 11000     7840.0854   180                  20795.3328   644348         
  22963 11841    infeasible                        20795.3328   697827         
  23917 12809    11371.0338   185                  20795.3328   762395         
  25013 12697    17270.1242   163                  20795.3328   752209         
  25986 14244    20761.5584   138                  20795.3328   832622         
Elapsed time = 175.67 sec. (34163.25 ticks, tree = 405.82 MB, solutions = 0)
  26944 13844    infeasible                        20795.3328   815450         
  27912 16274    11209.4959   195                  20795.3328   968249         
  28922 14940    19504.3310   158                  20795.3328   872173         
  29876 17825    17225.7157   109                  20795.3328  1063963         
  30867 16230    20767.0123   140                  20795.3328   963089         
  31913 17092    17283.9437   134                  20795.3328  1019329         
  33015 20670    12117.7925   139                  20795.3328  1243466         
  34000 18269    20676.9119   131                  20795.3328  1098986         
  34896 20735    19560.7218   158                  20795.3328  1247765         
  35952 21336    20363.7101   147                  20795.3328  1279750         
Elapsed time = 272.45 sec. (43706.00 ticks, tree = 1517.30 MB, solutions = 0)
  36986 21990    18383.2993   152                  20795.3328  1315023         
  38006 24273    11362.7528   150                  20795.3328  1464261         
  38992 22988    14353.5356   158                  20795.3328  1380887         
  40033 25129    20660.1659   101                  20795.3328  1513080         
  41188 26927    13317.7138   171                  20795.3328  1621500         
  42332 26218  -100512.2609   199                  20795.3328  1576758         
  43495 26506    20734.7877   133                  20795.3328  1590706         
  44616 26578    17603.7395   160                  20795.3328  1596930         
  45877 29311      852.1582   188                  20795.3328  1780579         
  47140 27803    20704.9737   133                  20795.3328  1687572         
Elapsed time = 381.08 sec. (53253.64 ticks, tree = 1627.58 MB, solutions = 0)
  48336 31111    20681.1882   141                  20795.3328  1910978         
  49503 31963    16638.3127   183                  20795.3328  1966423         
  50638 31775    11092.5145   131                  20795.3328  1950966         
  51772 32386    11265.1361   205                  20795.3328  1994444         
  52913 36222    20674.0701   115                  20795.3328  2269800         
  Signal handler called from  C:\Users\llavin\AppData\Local\Continuum\anaconda3\lib\subprocess.py _wait 1230
  Waiting...
